(set-info :origin "driver benchmark extracted from Microsoft SDV")
(set-logic HORN)
(declare-fun Proc2 (Int Int Int Int Bool Int Int Int Int Int Int) Bool)
(declare-fun Proc25 (Int Int Int Int Bool Int Bool Int Int Int Int) Bool)
(declare-fun Proc20 (Int Int Int Int Bool Int Int Int Int Bool Int) Bool)
(declare-fun Proc12 (Int Int Int Int Bool Int Int) Bool)
(declare-fun Proc24 (Int Int Int Int Bool) Bool)
(declare-fun Proc19 (Int Int Int Int Bool Int Int Int Int) Bool)
(declare-fun Proc7 (Int Int Int Int Bool Int Int Int Int Int) Bool)
(declare-fun Proc17 (Int Int Int Int Bool Int Int Int) Bool)
(declare-fun Proc3 (Int Int Int Int Bool Int Int Int) Bool)
(declare-fun Proc0 (Int Int Int Int Bool Int Int Int Int) Bool)
(declare-fun Proc16 (Int Int Int Int Bool) Bool)
(declare-fun Proc18 (Int Int Int Int Bool Int) Bool)
(declare-fun Proc13 (Int Int Int Int Bool) Bool)
(declare-fun Proc21 (Int Int Int Int Bool) Bool)
(declare-fun Proc1 (Int Int Int Int Bool Int Int Int Int) Bool)
(declare-fun Proc11 (Int Int Int Int Bool Int Int) Bool)
(declare-fun Proc8 (Int Int Int Int Bool Int Int) Bool)
(declare-fun Proc22 (Int Int Int Int Bool) Bool)
(declare-fun Proc10 (Int Int Int Int Bool Int) Bool)
(declare-fun Proc15 (Int Int Int Int Bool) Bool)
(declare-fun Proc6 (Int Int Int Int Bool Int) Bool)
(declare-fun Proc14 (Int Int Int Int Bool Int Int Int Int Int Int Int) Bool)
(declare-fun Proc5 (Int Int Int Int Bool Int) Bool)
(declare-fun Proc4
             (Int Int Int Int Bool Int Int Int Int Int Int Int Int Int Int)
             Bool)
(declare-fun Proc9 (Int Int Int Int Bool Int Int Int) Bool)
(declare-fun Proc23 (Int Int Int Int Bool Int Int Int Int Int Int Int) Bool)
(assert (forall ((A Int)
         (B Int)
         (C Int)
         (D Int)
         (E Int)
         (F Int)
         (G Int)
         (H Int)
         (I Int)
         (J Int)
         (K Int)
         (L Int)
         (M Int)
         (N Int)
         (O Int)
         (P Int)
         (Q Int)
         (R Int)
         (S Int)
         (T Int)
         (U Bool))
  (let ((a!1 (and (not (<= R (+ 1 T))) (not (<= R S))))
        (a!2 (and (not (<= P (+ 1 Q))) (not (<= P R))))
        (a!3 (and (not (<= N (+ 1 O))) (not (<= N P))))
        (a!4 (and (not (<= L (+ 1 M))) (not (<= L N)))))
  (let ((a!5 (or (not U)
                 (not (= T S))
                 (not a!1)
                 (not (= Q R))
                 (not a!2)
                 (not (= O P))
                 (not a!3)
                 (not (= M N))
                 (not a!4)
                 (= K 0)
                 (= J 0)
                 (= I 0)
                 (= H 0)
                 (= G 0)
                 (not (and (= F 0) (= E L))))))
    (=> (not a!5) (Proc0 S D C B U K A F E))))))
(assert (forall ((A Int)
         (B Int)
         (C Int)
         (D Int)
         (E Int)
         (F Int)
         (G Int)
         (H Int)
         (I Int)
         (J Int)
         (K Int)
         (L Int)
         (M Int)
         (N Int)
         (O Int)
         (P Int)
         (Q Int)
         (U Bool))
  (let ((a!1 (and (not (<= O (+ 1 Q))) (not (<= O P))))
        (a!2 (not (and (= F H) (= E J) (= D K) (= C I)))))
  (let ((a!3 (or (not (and (= I 1) (= H G))) a!2))
        (a!4 (and (or (not (= H 0)) a!2) (or (not (= H B)) a!2))))
  (let ((a!5 (or (not U)
                 (not (= Q P))
                 (not a!1)
                 (not (Proc1 O N M L U Q K J I))
                 (and a!3 (or (= I 1) a!4)))))
    (=> (not a!5) (Proc2 P N M L U A B F E D C)))))))
(assert (forall ((A Int)
         (B Int)
         (C Int)
         (D Int)
         (E Int)
         (F Int)
         (G Int)
         (H Int)
         (I Int)
         (J Int)
         (K Int)
         (L Int)
         (M Int)
         (N Int)
         (O Int)
         (P Int)
         (Q Int)
         (R Int)
         (S Int)
         (T Int)
         (U Bool)
         (V Int)
         (W Int))
  (let ((a!1 (and (not (<= R (+ 1 T))) (not (<= R S))))
        (a!2 (not (Proc3 R Q P O U T V N)))
        (a!3 (not (and (= M V) (= L R) (= K N))))
        (a!4 (not (and (= J (- 1073741823)) (= V J))))
        (a!5 (not (and (= I (- 1073741670)) (= V I))))
        (a!6 (not (and (= H (- 1073741771)) (= V H))))
        (a!7 (not (and (= G (- 1073741824)) (= V G)))))
  (let ((a!8 (and (or (= W 0) (not (= V 0)) (not (= T S)) (not a!1) a!2 a!3)
                  (or (= W 0) a!4 (not (= T S)) (not a!1) a!2 a!3)
                  (or (= W 0) a!5 (not (= T S)) (not a!1) a!2 a!3)
                  (or (= W 0) a!6 (not (= T S)) (not a!1) a!2 a!3)
                  (or (= W 0) a!7 (not (= T S)) (not a!1) a!2 a!3))))
    (=> (not (or (not U) a!8)) (Proc4 S Q P O U F E D C B A W M L K))))))
(assert (forall ((A Int) (B Int) (C Int) (D Int) (E Int) (U Bool))
  (=> U (Proc5 E D C B U A))))
(assert (forall ((A Int) (B Int) (C Int) (D Int) (E Int) (U Bool))
  (=> U (Proc6 E D C B U A))))
(assert (forall ((A Int)
         (B Int)
         (C Int)
         (D Int)
         (E Int)
         (F Int)
         (G Int)
         (H Int)
         (I Int)
         (J Int)
         (K Int)
         (L Int)
         (M Int)
         (U Bool))
  (let ((a!1 (not (and (= I (- 1073741808)) (= K I))))
        (a!2 (not (and (= H (- 1073741823)) (= K H)))))
  (let ((a!3 (and (or (= M 0) (not (= L 1)) (= L 0) (not (= K 0)) (not (= J K)))
                  (or a!1 (not (= J K)))
                  (or a!2 (not (= J K))))))
    (=> (not (or (not U) a!3)) (Proc7 G F E D U C B A M J))))))
(assert (forall ((A Int)
         (B Int)
         (C Int)
         (D Int)
         (E Int)
         (F Int)
         (G Int)
         (H Int)
         (I Int)
         (J Int)
         (U Bool))
  (let ((a!1 (and (not (<= H (+ 1 J))) (not (<= H I)))))
  (let ((a!2 (or (not U)
                 (not (= J I))
                 (not a!1)
                 (not (Proc8 H G F E U J D))
                 (not (and (= C H) (= B D))))))
    (=> (not a!2) (Proc9 I G F E U A C B))))))
(assert (forall ((A Int) (B Int) (C Int) (D Int) (E Int) (F Int) (U Bool))
  (let ((a!1 (not (or (not U) (not (= F 1))))))
    (=> a!1 (Proc8 E D C B U A F)))))
(assert (forall ((A Int) (B Int) (C Int) (D Int) (E Int) (U Bool))
  (=> false (Proc10 E D C B U A))))
(assert (forall ((A Int)
         (B Int)
         (C Int)
         (D Int)
         (E Int)
         (F Int)
         (G Int)
         (H Int)
         (I Int)
         (J Int)
         (K Int)
         (L Int)
         (M Int)
         (U Bool))
  (let ((a!1 (not (and (= G H) (= F J) (= E L))))
        (a!5 (not (and (not (= A 1)) (= L A) (= J B) (= H D)))))
  (let ((a!2 (or (= M 1) (not (= L K)) (not (and (= J I) (= H 0))) a!1))
        (a!3 (or (= D 0) (not (= L K)) (not (and (= J I) (= H 0))) a!1))
        (a!4 (or (not (and (= A 1) (= L A) (= J B) (= H D))) a!1)))
  (let ((a!6 (and a!3
                  (or (not (= D 0))
                      (not (Proc9 I M D K U C B A))
                      (and a!4 (or a!5 a!1))))))
  (let ((a!7 (and a!2 (or (not (= M 1)) a!6))))
    (=> (not (or (not U) a!7)) (Proc1 I M D K U C G F E))))))))
(assert (forall ((A Int)
         (B Int)
         (C Int)
         (D Int)
         (E Int)
         (F Int)
         (G Int)
         (H Int)
         (U Bool))
  (let ((a!1 (not (and (not (= H 1)) (= G F))))
        (a!2 (not (and (not (= D 0)) (= G F)))))
  (let ((a!3 (and (or a!2 (not (= E G)))
                  (or (not (= D 0)) (not (= G 1)) (not (= E G))))))
  (let ((a!4 (and (or a!1 (not (= E G))) (or (not (= H 1)) a!3))))
    (=> (not (or (not U) a!4)) (Proc3 C H F B U A D E)))))))
(assert (forall ((A Int) (B Int) (C Int) (D Int) (E Int) (F Int) (U Bool))
  (let ((a!1 (not (or (not U) (not (= F 1))))))
    (=> a!1 (Proc11 E D C B U A F)))))
(assert (forall ((A Int)
         (B Int)
         (C Int)
         (D Int)
         (E Int)
         (F Int)
         (G Int)
         (H Int)
         (U Bool))
  (let ((a!1 (and (not (<= F (+ 1 H))) (not (<= F G)))))
  (let ((a!2 (not (or (not U)
                      (not (= H G))
                      (not a!1)
                      (not (Proc10 F E D C U H))
                      (not (= B F))))))
    (=> a!2 (Proc12 G E D C U A B))))))
(assert (forall ((A Int)
         (B Int)
         (C Int)
         (D Int)
         (E Int)
         (F Int)
         (G Int)
         (H Int)
         (I Int)
         (J Int)
         (K Int)
         (L Int)
         (M Int)
         (N Int)
         (O Int)
         (P Int)
         (Q Int)
         (R Int)
         (S Int)
         (T Int)
         (U Bool)
         (V Int)
         (W Int)
         (X Int)
         (Y Int)
         (Z Int)
         (A1 Int)
         (B1 Int)
         (C1 Int)
         (D1 Int)
         (E1 Int)
         (F1 Int)
         (G1 Int)
         (H1 Int)
         (I1 Int)
         (J1 Int)
         (K1 Int)
         (L1 Int)
         (M1 Int)
         (N1 Int)
         (O1 Int)
         (P1 Int)
         (Q1 Int)
         (R1 Int)
         (S1 Int)
         (T1 Int)
         (U1 Int)
         (V1 Int)
         (W1 Int)
         (X1 Int)
         (Y1 Int)
         (Z1 Int))
  (let ((a!1 (and (not (<= X1 (+ 4 Z1))) (not (<= X1 Y1))))
        (a!2 (and (not (<= V1 (+ 1 W1))) (not (<= V1 X1))))
        (a!3 (and (not (<= P1 (+ 1 Q1))) (not (<= P1 V1))))
        (a!4 (and (not (<= F1 (+ 1 G1))) (not (<= F1 J1))))
        (a!5 (not (and (= D1 H1) (= C1 E1) (= B1 I1) (= A1 K1))))
        (a!6 (not (and (= Z A1) (= Y C1) (= X R1) (= W D1) (= V B1))))
        (a!8 (and (not (<= S (+ 1 T))) (not (<= S M1))))
        (a!9 (not (and (not (= R 0)) (Proc2 S R1 L1 S1 U Q P O N M L))))
        (a!11 (not (and (not (= R 0))
                        (= J (+ 24 R))
                        (Proc7 N R1 M L U I H 0 J G))))
        (a!12 (and (not (<= E (+ 1 F))) (not (<= E N))))
        (a!13 (not (and (not (= R 0)) (Proc6 E R1 M L U D)))))
  (let ((a!7 (or (<= 0 N1)
                 (not (and (= K1 N1) (= J1 M1) (= I1 S1) (= H1 L1)))
                 (not (= G1 J1))
                 (not a!4)
                 (not (Proc12 F1 R1 H1 I1 U G1 E1))
                 a!5
                 a!6))
        (a!10 (or (not (= L 1))
                  (not (and (= D1 M) (= C1 N) (= B1 L) (= A1 K)))
                  a!6))
        (a!14 (or (<= 0 G)
                  (not (= F N))
                  (not a!12)
                  (= R 0)
                  a!13
                  (not (Proc5 E R1 M L U C))
                  (not (and (= K1 G) (= J1 E) (= I1 L) (= H1 M)))
                  (not (= G1 J1))
                  (not a!4)
                  (not (Proc12 F1 R1 H1 I1 U G1 E1))
                  a!5
                  a!6))
        (a!15 (or (not (<= 0 G))
                  (not (and (= K1 G) (= J1 N) (= I1 L) (= H1 M)))
                  (not (= G1 J1))
                  (not a!4)
                  (not (Proc12 F1 R1 H1 I1 U G1 E1))
                  a!5
                  a!6))
        (a!16 (or (not (Proc5 N R1 M L U B))
                  (not (= A (- 1073741810)))
                  (not (and (= K1 A) (= J1 N) (= I1 L) (= H1 M)))
                  (not (= G1 J1))
                  (not a!4)
                  (not (Proc12 F1 R1 H1 I1 U G1 E1))
                  a!5
                  a!6)))
  (let ((a!17 (or (= L 1) (= R 0) (and (or a!11 (and a!14 a!15)) a!16))))
  (let ((a!18 (and a!7
                   (or (not (<= 0 N1))
                       (not (= T M1))
                       (not a!8)
                       (= R 0)
                       a!9
                       (and a!10 a!17)))))
  (let ((a!19 (not (or (not U)
                       (not (= Z1 Y1))
                       (not a!1)
                       (not (= W1 X1))
                       (not a!2)
                       (not (Proc11 V1 U1 T1 S1 U W1 R1))
                       (not (Proc13 V1 R1 T1 S1 U))
                       (not (= Q1 V1))
                       (not a!3)
                       (not (Proc4 P1 R1 T1 S1 U O1 260 0 34 256 0 Z1 N1 M1 L1))
                       a!18))))
    (=> a!19 (Proc14 Y1 U1 T1 S1 U O1 I Z Y X W V)))))))))
(assert (forall ((A Int) (B Int) (C Int) (D Int) (U Bool)) (=> U (Proc15 D C B A U))))
(assert (forall ((A Int) (B Int) (C Int) (D Int) (U Bool)) (=> U (Proc16 D C B A U))))
(assert (forall ((A Int) (B Int) (C Int) (D Int) (E Int) (F Int) (G Int) (U Bool))
  (let ((a!1 (or (not U) (not (and (= G 0) (= F 0) (= E 0))))))
    (=> (not a!1) (Proc17 D C B A U G F E)))))
(assert (forall ((A Int)
         (B Int)
         (C Int)
         (D Int)
         (E Int)
         (F Int)
         (G Int)
         (H Int)
         (I Int)
         (J Int)
         (K Int)
         (L Int)
         (M Int)
         (N Int)
         (O Int)
         (P Int)
         (Q Int)
         (R Int)
         (S Int)
         (T Int)
         (U Bool)
         (A2 Bool)
         (B2 Bool)
         (C2 Bool))
  (let ((a!1 (not (and (not (<= T 0)) (Proc18 T S R Q C2 P))))
        (a!2 (not (and (= F H) (= E J) (= D K) (= C I) (= A2 B2) (= B L)))))
  (let ((a!3 (or (= I 0) (not (and (= H G) (not B2))) a!2))
        (a!4 (or (not (and (= I 0) (= U C2))) (not (and (= H A) (= B2 U))) a!2)))
  (let ((a!5 (and (or (= I 1) (and a!3 a!4)) (or (not (= I 1)) (and a!3 a!4)))))
  (let ((a!6 (not (or (not C2)
                      a!1
                      (not (Proc17 P S R Q C2 O N M))
                      (not (Proc16 P N O M C2))
                      (not (Proc15 P N O M C2))
                      (not (Proc19 P N O M C2 L K J I))
                      a!5))))
    (=> a!6 (Proc20 T S R Q C2 F E D C A2 B))))))))
(assert (forall ((A Int)
         (B Int)
         (C Int)
         (D Int)
         (E Int)
         (F Int)
         (G Int)
         (H Int)
         (I Int)
         (J Int)
         (K Int)
         (L Int)
         (M Int)
         (N Int)
         (O Int)
         (P Int)
         (Q Int)
         (R Int)
         (U Bool))
  (let ((a!1 (not (and (= E G) (= D K) (= C J) (= B I) (= A H)))))
  (let ((a!2 (or (not (and (= H 1) (= G F))) a!1)))
  (let ((a!3 (and a!2 (or (= H 1) (not (Proc22 K J I H U)) (not (= G L)) a!1))))
  (let ((a!4 (not (or (not U)
                      (not (Proc21 R Q P O U))
                      (not (Proc14 R Q P O U N M L K J I H))
                      a!3))))
    (=> a!4 (Proc23 R Q P O U N M E D C B A))))))))
(assert (forall ((A Int) (B Int) (C Int) (D Int) (U Bool)) (=> U (Proc13 D C B A U))))
(assert (forall ((A Int)
         (B Int)
         (C Int)
         (D Int)
         (E Int)
         (F Int)
         (G Int)
         (H Int)
         (I Int)
         (J Int)
         (K Int)
         (L Int)
         (M Int)
         (N Int)
         (O Int)
         (P Int)
         (Q Int)
         (R Int)
         (S Int)
         (T Int)
         (U Bool)
         (V Int)
         (W Int))
  (let ((a!1 (and (not (<= T (+ 12 W))) (not (<= T V))))
        (a!2 (not (and (= E I) (= D H) (= C G) (= B F)))))
  (let ((a!3 (and (or (not (= F 1)) a!2)
                  (or (= F 1)
                      (not (<= 0 J))
                      (not (= A 1))
                      (= A 0)
                      (not (Proc24 I H G F U))
                      a!2))))
  (let ((a!4 (not (or (not U)
                      (not (= W V))
                      (not a!1)
                      (not (Proc0 T S R Q U P W O N))
                      (not (<= 0 O))
                      (not (= M 1))
                      (= M 0)
                      (not (Proc23 N S R Q U L K J I H G F))
                      a!3))))
    (=> a!4 (Proc19 V S R Q U E D C B)))))))
(assert (forall ((A Int) (B Int) (C Int) (D Int) (U Bool)) (=> U (Proc21 D C B A U))))
(assert (forall ((A Int) (B Int) (C Int) (D Int) (U Bool)) (=> U (Proc22 D C B A U))))
(assert (forall ((A Int) (B Int) (C Int) (D Int) (U Bool)) (=> U (Proc24 D C B A U))))
(assert (forall ((A Int)
         (B Int)
         (C Int)
         (D Int)
         (E Int)
         (F Int)
         (G Int)
         (H Int)
         (I Int)
         (J Int)
         (K Int)
         (L Int)
         (M Int)
         (N Int)
         (O Int)
         (P Int)
         (Q Int)
         (R Int)
         (S Int)
         (T Int)
         (U Bool)
         (V Int)
         (W Int)
         (X Int)
         (Y Int)
         (Z Int)
         (A1 Int)
         (B1 Int)
         (C1 Int)
         (D1 Int)
         (E1 Int)
         (F1 Int)
         (G1 Int)
         (H1 Int)
         (I1 Int)
         (J1 Int)
         (K1 Int)
         (L1 Int)
         (M1 Int)
         (N1 Int)
         (O1 Int)
         (P1 Int)
         (Q1 Int)
         (R1 Int)
         (S1 Int)
         (T1 Int)
         (U1 Int)
         (V1 Int)
         (W1 Int)
         (X1 Int)
         (Y1 Int)
         (Z1 Int)
         (D2 Int)
         (E2 Int)
         (F2 Int)
         (G2 Int)
         (H2 Int)
         (I2 Int)
         (J2 Int)
         (K2 Int)
         (L2 Int)
         (M2 Int)
         (N2 Int)
         (O2 Int)
         (P2 Int)
         (Q2 Int)
         (R2 Int)
         (S2 Int)
         (T2 Int)
         (U2 Int))
  (let ((a!1 (and (= U2 T2)
                  (not (<= S2 (+ 16 U2)))
                  (not (<= S2 T2))
                  (= R2 S2)
                  (not (<= Q2 (+ 16 R2)))
                  (not (<= Q2 S2))
                  (= P2 Q2)
                  (not (<= O2 (+ 16 P2)))
                  (not (<= O2 Q2))
                  (= N2 O2)
                  (not (<= M2 (+ 16 N2)))
                  (not (<= M2 O2))
                  (= L2 M2)
                  (not (<= K2 (+ 16 L2)))
                  (not (<= K2 M2))
                  (= J2 K2)
                  (not (<= I2 (+ 16 J2)))
                  (not (<= I2 K2))
                  (= H2 I2)
                  (not (<= G2 (+ 16 H2)))
                  (not (<= G2 I2))
                  (= F2 G2)
                  (not (<= E2 (+ 16 F2)))
                  (not (<= E2 G2))
                  (= D2 E2)
                  (not (<= Z1 (+ 4 D2)))
                  (not (<= Z1 E2))
                  (= Y1 Z1)
                  (not (<= X1 (+ 332 Y1)))
                  (not (<= X1 Z1))
                  (= W1 X1)
                  (not (<= V1 (+ 4 W1)))))
        (a!2 (and (not (<= V1 X1))
                  (= U1 V1)
                  (not (<= T1 (+ 536 U1)))
                  (not (<= T1 V1))
                  (= S1 T1)
                  (not (<= R1 (+ 240 S1)))
                  (not (<= R1 T1))
                  (= Q1 R1)
                  (not (<= P1 (+ 240 Q1)))
                  (not (<= P1 R1))
                  (= O1 P1)
                  (not (<= N1 (+ 240 O1)))
                  (not (<= N1 P1))
                  (= M1 N1)
                  (not (<= L1 (+ 4 M1)))
                  (not (<= L1 N1))
                  (= K1 L1)
                  (not (<= J1 (+ 536 K1)))
                  (not (<= J1 L1))
                  (= I1 J1)
                  (not (<= H1 (+ 332 I1)))
                  (not (<= H1 J1))
                  (= G1 H1)
                  (not (<= F1 (+ 240 G1)))
                  (not (<= F1 H1))
                  (= E1 F1)
                  (not (<= D1 (+ 240 E1)))
                  (not (<= D1 F1))
                  (= C1 D1)
                  (not (<= B1 (+ 332 C1)))
                  (not (<= B1 D1))
                  (= A1 B1)
                  (not (<= Z (+ 4 A1)))
                  (not (<= Z B1))
                  (= Y Z)
                  (not (<= X (+ 68 Y)))
                  (not (<= X Z))
                  (= W X)
                  (not (<= V (+ 240 W)))
                  (not (<= V X))
                  (= T V)
                  (not (<= S (+ 240 T)))
                  (not (<= S V))
                  (= R S)
                  (not (<= Q (+ 240 R)))
                  (not (<= Q S))
                  (= P Q)
                  (not (<= O (+ 240 P)))
                  (not (<= O Q))
                  (= N O)
                  (not (<= M (+ 240 N)))
                  (not (<= M O))
                  (= L M)
                  (not (<= K (+ 40 L)))
                  (not (<= K M))
                  (= J K)
                  (not (<= I (+ 332 J)))
                  (not (<= I K))
                  (= H I)
                  (not (<= G (+ 4 H)))
                  (not (<= G I))
                  (= F G)
                  (not (<= E (+ 40 F)))
                  (not (<= E G)))))
  (let ((a!3 (not (or (not U) (not a!1) (not a!2) (not (= D E))))))
    (=> a!3 (Proc18 T2 C B A U D))))))
(assert (forall ((A Int)
         (B Int)
         (C Int)
         (D Int)
         (E Int)
         (F Int)
         (G Int)
         (H Int)
         (I Int)
         (J Int)
         (K Int)
         (L Int)
         (M Int)
         (N Int)
         (U Bool)
         (A2 Bool)
         (B2 Bool))
  (let ((a!1 (or (not B2)
                 (not (and (Proc20 N M L K true J I H G A2 F) (not A2))))))
    (=> (not a!1) (Proc25 N M L K B2 E U D C B A)))))
(assert (let ((a!1 (exists ((V0 Int)
                    (V1 Int)
                    (V2 Int)
                    (V3 Int)
                    (V4 Bool)
                    (V5 Int)
                    (V6 Bool)
                    (V7 Int)
                    (V8 Int)
                    (V9 Int)
                    (V10 Int))
             (not (=> (and (Proc25 V0 V1 V2 V3 V4 V5 V6 V7 V8 V9 V10)
                           (not false))
                      false)))))
  (not a!1)))

(check-sat)
